p cnf 22 11
e 1 2 0
a 3 0
e 4 0
a 5 6 0
e 7 0
a 8 9 0
e 10 0
a 11 0
e 12 0
a 13 0
e 14 15 16 17 0
a 18 19 0
e 20 0
a 21 22 0
21 -5 -15 13 0
-15 3 8 19 0
-15 1 19 -9 8 0
-20 3 21 -10 -5 0
-6 11 -16 22 -9 0
7 -19 9 0
-2 11 10 0
17 10 -1 -20 -16 0
-10 7 -15 -21 0
20 -5 14 3 0
-8 21 13 -12 -18 0
